c instance by G2
c solution = 101100010001110
c Known solution cost is 768 
p cnf 15 30
w 58 83 50 85 7 37 4 70 25 41 43 67 72 63 63
-12 -3 -11 0
-1 -14 13 0
-8 -15 -13 0
3 15 5 0
9 -10 -13 0
15 -9 11 0
-15 -14 13 0
3 -11 -1 0
7 3 -13 0
8 9 6 0
9 -7 6 0
-12 4 -7 0
-13 -5 6 0
14 15 -12 0
-2 -15 4 0
-2 -10 -8 0
2 -15 10 0
5 11 -7 0
9 12 2 0
4 1 -7 0
-2 7 -10 0
-8 -6 -13 0
-4 14 -15 0
6 -2 -1 0
-12 -14 -10 0
-5 10 11 0
-4 1 15 0
14 6 -8 0
-6 -1 8 0
-12 6 4 0
